; benchmark generated from python API
(set-info :status unknown)
(declare-fun DISJ_W_S2_R_S1 () Bool)
(declare-fun W_S2_V3 () Bool)
(declare-fun W_S2_V2 () Bool)
(declare-fun R_S2_V5 () Bool)
(declare-fun R_S2_V1 () Bool)
(declare-fun W_S1_V4 () Bool)
(declare-fun W_S2_V5 () Bool)
(declare-fun DISJ_W_S1_W_S2 () Bool)
(declare-fun R_S2_V3 () Bool)
(declare-fun R_S2_V4 () Bool)
(declare-fun W_S2_V1 () Bool)
(declare-fun DISJ_W_S1_R_S2 () Bool)
(declare-fun DISJ_W_S2_R_S2 () Bool)
(declare-fun R_E1_V4 () Bool)
(declare-fun R_E1_V5 () Bool)
(declare-fun W_S1_V5 () Bool)
(declare-fun R_S2_V2 () Bool)
(declare-fun R_S1_V4 () Bool)
(declare-fun R_S1_V5 () Bool)
(declare-fun R_S1_V2 () Bool)
(declare-fun R_S1_V3 () Bool)
(declare-fun R_S1_V1 () Bool)
(declare-fun R_E1_V2 () Bool)
(declare-fun DISJ_W_S2_R_E1 () Bool)
(declare-fun R_E1_V3 () Bool)
(declare-fun DISJ_W_S1_R_S1 () Bool)
(declare-fun W_S2_V4 () Bool)
(declare-fun W_S1_V3 () Bool)
(declare-fun W_S1_V2 () Bool)
(declare-fun W_S1_V1 () Bool)
(declare-fun R_E1_V1 () Bool)
(declare-fun DISJ_W_S1_R_E1 () Bool)
(assert
 (let (($x5815 (not W_S2_V3)))
 (let (($x2895 (not W_S2_V2)))
 (let (($x2427 (not R_S2_V5)))
 (let (($x2466 (not R_S2_V1)))
 (let (($x3888 (not (and $x2466 $x2427 $x2895 $x5815 DISJ_W_S2_R_S1))))
 (let (($x3703 (not (and $x2427 (not W_S1_V4) $x5815 DISJ_W_S2_R_S1))))
 (let (($x3783 (not (and $x2466 $x2895 (not W_S2_V5) $x5815 DISJ_W_S2_R_S1))))
 (let (($x1929 (not (and DISJ_W_S1_W_S2 DISJ_W_S2_R_S1))))
 (let (($x3847 (not (and $x2466 (not R_S2_V3) $x2427 $x2895 DISJ_W_S2_R_S1))))
 (let (($x321 (not (and $x2466 (not R_S2_V3) (not R_S2_V4) $x2895 DISJ_W_S2_R_S1))))
 (let (($x2337 (not (and $x2466 (not R_S2_V4) $x2895 (not W_S2_V5) DISJ_W_S2_R_S1))))
 (let (($x1217 (not (and $x2466 $x2427 (not R_S2_V4) $x2895 DISJ_W_S2_R_S1))))
 (let (($x820 (not (and $x2466 (not R_S2_V3) $x2895 (not W_S2_V5) DISJ_W_S2_R_S1))))
 (let (($x981 (not W_S2_V1)))
 (let (($x114 (and $x981 $x2895)))
 (let (($x2189 (not $x114)))
 (let (($x1077 (not (and (not R_S2_V3) (not R_S2_V4) (not W_S2_V5) DISJ_W_S2_R_S1))))
 (let (($x2318 (not (and (not R_S2_V4) (not W_S2_V5) $x5815 DISJ_W_S2_R_S1))))
 (let (($x4865 (not (and (not R_S2_V3) (not W_S1_V4) (not W_S2_V5) DISJ_W_S2_R_S1))))
 (let (($x2963 (not (and DISJ_W_S1_R_S2 DISJ_W_S2_R_S1))))
 (let (($x4857 (not (and $x2895 DISJ_W_S2_R_S2))))
 (let (($x3346 (not (and DISJ_W_S2_R_S1 DISJ_W_S2_R_S2))))
 (let (($x2653 (not (and W_S1_V4 R_E1_V4))))
 (let (($x4738 (not (and W_S1_V5 R_E1_V5))))
 (let (($x2465 (forall ((V3_0 Int) )(forall ((V2_0 Int) )(forall ((V5_0 Int) )(forall ((V4_0 Int) )(forall ((MW_S1_V1 Bool) )(forall ((MW_S1_V3 Bool) )(forall ((MW_S1_V2 Bool) )(forall ((MW_S1_V5 Bool) )(forall ((MW_S1_V4 Bool) )(forall ((MW_S2_V1 Bool) )(forall ((MW_S2_V3 Bool) )(forall ((MW_S2_V2 Bool) )(forall ((MW_S2_V5 Bool) )(forall ((MW_S2_V4 Bool) )(forall ((S1_V1_!2447 Int) )(forall ((S1_V1_!2464 Int) )(forall ((S1_V1_!2474 Int) )(forall ((S2_V5_!2456 Int) )(forall ((S2_V5_!2461 Int) )(forall ((S2_V5_!2472 Int) )(forall ((S2_V5_!2482 Int) )(forall ((S1_V3_!2448 Int) )(forall ((S1_V3_!2465 Int) )(forall ((S1_V3_!2475 Int) )(forall ((S1_V2_!2449 Int) )(forall ((S1_V2_!2466 Int) )(forall ((S1_V2_!2476 Int) )(forall ((E1_!2446 Int) )(forall ((E1_!2452 Int) )(forall ((E1_!2463 Int) )(forall ((S2_V4_!2457 Int) )(forall ((S2_V4_!2462 Int) )(forall ((S2_V4_!2473 Int) )(forall ((S2_V4_!2483 Int) )(forall ((S1_V5_!2450 Int) )(forall ((S1_V5_!2467 Int) )(forall ((S1_V5_!2477 Int) )(forall ((S2_V1_!2453 Int) )(forall ((S2_V1_!2458 Int) )(forall ((S2_V1_!2469 Int) )(forall ((S2_V1_!2479 Int) )(forall ((S1_V4_!2451 Int) )(forall ((S1_V4_!2468 Int) )(forall ((S1_V4_!2478 Int) )(forall ((S2_V2_!2455 Int) )(forall ((S2_V2_!2460 Int) )(forall ((S2_V2_!2471 Int) )(forall ((S2_V2_!2481 Int) )(forall ((S2_V3_!2454 Int) )(forall ((S2_V3_!2459 Int) )(forall ((S2_V3_!2470 Int) )(forall ((S2_V3_!2480 Int) )(let (($x479 (= (ite MW_S2_V4 S2_V4_!2462 (ite MW_S1_V4 S1_V4_!2451 V4_0)) (ite MW_S2_V4 S2_V4_!2483 (ite MW_S1_V4 S1_V4_!2478 (ite MW_S2_V4 S2_V4_!2473 (ite MW_S1_V4 S1_V4_!2468 V4_0)))))))
 (let (($x218 (= (ite MW_S2_V5 S2_V5_!2461 (ite MW_S1_V5 S1_V5_!2450 V5_0)) (ite MW_S2_V5 S2_V5_!2482 (ite MW_S1_V5 S1_V5_!2477 (ite MW_S2_V5 S2_V5_!2472 (ite MW_S1_V5 S1_V5_!2467 V5_0)))))))
 (let ((?x977 (ite MW_S1_V2 S1_V2_!2466 V2_0)))
 (let ((?x6003 (ite MW_S2_V2 S2_V2_!2471 ?x977)))
 (let ((?x5678 (ite MW_S1_V2 S1_V2_!2476 ?x6003)))
 (let ((?x338 (ite MW_S2_V2 S2_V2_!2481 ?x5678)))
 (let ((?x24 (ite MW_S1_V2 S1_V2_!2449 V2_0)))
 (let ((?x3628 (ite MW_S2_V2 S2_V2_!2460 ?x24)))
 (let (($x4220 (= (ite MW_S2_V3 S2_V3_!2459 (ite MW_S1_V3 S1_V3_!2448 V3_0)) (ite MW_S2_V3 S2_V3_!2480 (ite MW_S1_V3 S1_V3_!2475 (ite MW_S2_V3 S2_V3_!2470 (ite MW_S1_V3 S1_V3_!2465 V3_0)))))))
 (let ((?x1104 (ite MW_S1_V1 S1_V1_!2464 E1_!2463)))
 (let ((?x6017 (ite MW_S2_V1 S2_V1_!2469 ?x1104)))
 (let ((?x4441 (+ 1 ?x6017)))
 (let ((?x3506 (ite MW_S1_V1 S1_V1_!2474 ?x4441)))
 (let ((?x3562 (ite MW_S2_V1 S2_V1_!2479 ?x3506)))
 (let ((?x2913 (ite MW_S2_V1 S2_V1_!2453 E1_!2452)))
 (let ((?x3966 (+ 1 ?x2913)))
 (let ((?x4061 (ite MW_S2_V1 S2_V1_!2458 ?x3966)))
 (let (($x5414 (and (not (<= V2_0 E1_!2446)) (>= (ite MW_S1_V1 S1_V1_!2447 E1_!2446) (+ (- 1) ?x24)) (not (<= ?x24 E1_!2452)) (not (<= (ite MW_S2_V2 S2_V2_!2455 ?x24) ?x3966)) (>= ?x4061 (+ (- 1) ?x3628)) (not (<= V2_0 E1_!2463)) (not (<= ?x6003 ?x4441)) (>= ?x3562 (+ (- 1) ?x338)))))
 (let (($x4037 (= S2_V3_!2480 S2_V3_!2470)))
 (let ((?x1220 (ite MW_S1_V4 S1_V4_!2468 V4_0)))
 (let ((?x2914 (ite MW_S2_V4 S2_V4_!2473 ?x1220)))
 (let ((?x508 (ite MW_S1_V4 S1_V4_!2478 ?x2914)))
 (let (($x3411 (not R_S2_V4)))
 (let ((?x3975 (ite MW_S1_V5 S1_V5_!2467 V5_0)))
 (let ((?x5690 (ite MW_S2_V5 S2_V5_!2472 ?x3975)))
 (let ((?x251 (ite MW_S1_V5 S1_V5_!2477 ?x5690)))
 (let (($x2427 (not R_S2_V5)))
 (let ((?x2854 (ite MW_S1_V3 S1_V3_!2465 V3_0)))
 (let ((?x1830 (ite MW_S2_V3 S2_V3_!2470 ?x2854)))
 (let ((?x2696 (ite MW_S1_V3 S1_V3_!2475 ?x1830)))
 (let (($x1768 (not R_S2_V3)))
 (let (($x5292 (and (or (not R_S2_V1) (= ?x3506 ?x1104)) (or $x1768 (= ?x2696 ?x2854)) (or (not R_S2_V2) (= ?x5678 ?x977)) (or $x2427 (= ?x251 ?x3975)) (or $x3411 (= ?x508 ?x1220)))))
 (let (($x1938 (not $x5292)))
 (let (($x4051 (= S2_V3_!2480 S2_V3_!2459)))
 (let (($x913 (and (or (not R_S2_V1) (= ?x3506 ?x3966)) (or $x1768 (= ?x2696 (ite MW_S2_V3 S2_V3_!2454 (ite MW_S1_V3 S1_V3_!2448 V3_0)))) (or (not R_S2_V2) (= ?x5678 (ite MW_S2_V2 S2_V2_!2455 ?x24))) (or $x2427 (= ?x251 (ite MW_S2_V5 S2_V5_!2456 (ite MW_S1_V5 S1_V5_!2450 V5_0)))) (or $x3411 (= ?x508 (ite MW_S2_V4 S2_V4_!2457 (ite MW_S1_V4 S1_V4_!2451 V4_0)))))))
 (let (($x4125 (not $x913)))
 (let (($x5826 (= S2_V3_!2470 S2_V3_!2459)))
 (let (($x5965 (and (or (not R_S2_V1) (= ?x1104 ?x3966)) (or $x1768 (= ?x2854 (ite MW_S2_V3 S2_V3_!2454 (ite MW_S1_V3 S1_V3_!2448 V3_0)))) (or (not R_S2_V2) (= ?x977 (ite MW_S2_V2 S2_V2_!2455 ?x24))) (or $x2427 (= ?x3975 (ite MW_S2_V5 S2_V5_!2456 (ite MW_S1_V5 S1_V5_!2450 V5_0)))) (or $x3411 (= ?x1220 (ite MW_S2_V4 S2_V4_!2457 (ite MW_S1_V4 S1_V4_!2451 V4_0)))))))
 (let (($x314 (not $x5965)))
 (let (($x4277 (= S2_V3_!2454 S2_V3_!2480)))
 (let (($x3157 (and (or (not R_S2_V1) (= E1_!2452 ?x3506)) (or $x1768 (= (ite MW_S1_V3 S1_V3_!2448 V3_0) ?x2696)) (or (not R_S2_V2) (= ?x24 ?x5678)) (or $x2427 (= (ite MW_S1_V5 S1_V5_!2450 V5_0) ?x251)) (or $x3411 (= (ite MW_S1_V4 S1_V4_!2451 V4_0) ?x508)))))
 (let (($x3167 (not $x3157)))
 (let (($x170 (= S2_V3_!2454 S2_V3_!2470)))
 (let (($x778 (and (or (not R_S2_V1) (= E1_!2452 ?x1104)) (or $x1768 (= (ite MW_S1_V3 S1_V3_!2448 V3_0) ?x2854)) (or (not R_S2_V2) (= ?x24 ?x977)) (or $x2427 (= (ite MW_S1_V5 S1_V5_!2450 V5_0) ?x3975)) (or $x3411 (= (ite MW_S1_V4 S1_V4_!2451 V4_0) ?x1220)))))
 (let (($x2279 (not $x778)))
 (let (($x2510 (= S2_V3_!2454 S2_V3_!2459)))
 (let (($x254 (or $x3411 (= (ite MW_S1_V4 S1_V4_!2451 V4_0) (ite MW_S2_V4 S2_V4_!2457 (ite MW_S1_V4 S1_V4_!2451 V4_0))))))
 (let (($x3296 (or $x2427 (= (ite MW_S1_V5 S1_V5_!2450 V5_0) (ite MW_S2_V5 S2_V5_!2456 (ite MW_S1_V5 S1_V5_!2450 V5_0))))))
 (let (($x4748 (or $x1768 (= (ite MW_S1_V3 S1_V3_!2448 V3_0) (ite MW_S2_V3 S2_V3_!2454 (ite MW_S1_V3 S1_V3_!2448 V3_0))))))
 (let (($x3919 (and (or (not R_S2_V1) (= E1_!2452 ?x3966)) $x4748 (or (not R_S2_V2) (= ?x24 (ite MW_S2_V2 S2_V2_!2455 ?x24))) $x3296 $x254)))
 (let (($x2025 (not $x3919)))
 (let (($x3502 (= S2_V2_!2481 S2_V2_!2455)))
 (let (($x1245 (and (or (not R_S2_V1) (= ?x3506 E1_!2452)) (or $x1768 (= ?x2696 (ite MW_S1_V3 S1_V3_!2448 V3_0))) (or (not R_S2_V2) (= ?x5678 ?x24)) (or $x2427 (= ?x251 (ite MW_S1_V5 S1_V5_!2450 V5_0))) (or $x3411 (= ?x508 (ite MW_S1_V4 S1_V4_!2451 V4_0))))))
 (let (($x1614 (not $x1245)))
 (let (($x61 (= S2_V2_!2471 S2_V2_!2481)))
 (let (($x91 (and (or (not R_S2_V1) (= ?x1104 ?x3506)) (or $x1768 (= ?x2854 ?x2696)) (or (not R_S2_V2) (= ?x977 ?x5678)) (or $x2427 (= ?x3975 ?x251)) (or $x3411 (= ?x1220 ?x508)))))
 (let (($x2666 (not $x91)))
 (let (($x520 (= S2_V2_!2471 S2_V2_!2455)))
 (let (($x2266 (and (or (not R_S2_V1) (= ?x1104 E1_!2452)) (or $x1768 (= ?x2854 (ite MW_S1_V3 S1_V3_!2448 V3_0))) (or (not R_S2_V2) (= ?x977 ?x24)) (or $x2427 (= ?x3975 (ite MW_S1_V5 S1_V5_!2450 V5_0))) (or $x3411 (= ?x1220 (ite MW_S1_V4 S1_V4_!2451 V4_0))))))
 (let (($x1835 (not $x2266)))
 (let (($x3109 (not R_S1_V4)))
 (let (($x3164 (or $x3109 (= ?x2914 V4_0))))
 (let (($x1626 (not R_S1_V5)))
 (let (($x4918 (or $x1626 (= ?x5690 V5_0))))
 (let (($x4263 (not R_S1_V2)))
 (let (($x4757 (or $x4263 (= ?x6003 V2_0))))
 (let (($x3742 (not R_S1_V3)))
 (let (($x2874 (or $x3742 (= ?x1830 V3_0))))
 (let (($x1052 (and (or (not R_S1_V1) (= ?x6017 (+ (- 1) E1_!2446))) $x2874 $x4757 $x4918 $x3164)))
 (let (($x2012 (not $x1052)))
 (let (($x3022 (= S1_V4_!2468 S1_V4_!2478)))
 (let (($x1762 (or $x3109 (= V4_0 ?x2914))))
 (let (($x1445 (or $x1626 (= V5_0 ?x5690))))
 (let (($x2450 (or $x4263 (= V2_0 ?x6003))))
 (let (($x5084 (or $x3742 (= V3_0 ?x1830))))
 (let (($x3750 (not (and (or (not R_S1_V1) (= E1_!2463 ?x4441)) $x5084 $x2450 $x1445 $x1762))))
 (let (($x2709 (and (or (not R_S2_V1) (= ?x2913 (+ (- 1) ?x3506))) (or $x1768 (= (ite MW_S2_V3 S2_V3_!2454 (ite MW_S1_V3 S1_V3_!2448 V3_0)) ?x2696)) (or (not R_S2_V2) (= (ite MW_S2_V2 S2_V2_!2455 ?x24) ?x5678)) (or $x2427 (= (ite MW_S2_V5 S2_V5_!2456 (ite MW_S1_V5 S1_V5_!2450 V5_0)) ?x251)) (or $x3411 (= (ite MW_S2_V4 S2_V4_!2457 (ite MW_S1_V4 S1_V4_!2451 V4_0)) ?x508)))))
 (let (($x228 (not $x2709)))
 (let (($x5421 (and (or (not R_S1_V1) (= ?x6017 (+ (- 1) E1_!2463))) $x2874 $x4757 $x4918 $x3164)))
 (let (($x248 (not $x5421)))
 (let (($x762 (and (or (not R_S2_V1) (= ?x2913 (+ (- 1) ?x1104))) (or $x1768 (= (ite MW_S2_V3 S2_V3_!2454 (ite MW_S1_V3 S1_V3_!2448 V3_0)) ?x2854)) (or (not R_S2_V2) (= (ite MW_S2_V2 S2_V2_!2455 ?x24) ?x977)) (or $x2427 (= (ite MW_S2_V5 S2_V5_!2456 (ite MW_S1_V5 S1_V5_!2450 V5_0)) ?x3975)) (or $x3411 (= (ite MW_S2_V4 S2_V4_!2457 (ite MW_S1_V4 S1_V4_!2451 V4_0)) ?x1220)))))
 (let (($x3420 (not $x762)))
 (let (($x2983 (= E1_!2463 E1_!2446)))
 (let (($x4563 (and (or (not R_E1_V2) (= ?x24 V2_0)) (or (not R_E1_V5) (= (ite MW_S1_V5 S1_V5_!2450 V5_0) V5_0)) (or (not R_E1_V4) (= (ite MW_S1_V4 S1_V4_!2451 V4_0) V4_0)))))
 (let (($x5944 (not $x4563)))
 (let (($x737 (or $x3411 (= (ite MW_S2_V4 S2_V4_!2457 (ite MW_S1_V4 S1_V4_!2451 V4_0)) (ite MW_S1_V4 S1_V4_!2451 V4_0)))))
 (let (($x5030 (or $x2427 (= (ite MW_S2_V5 S2_V5_!2456 (ite MW_S1_V5 S1_V5_!2450 V5_0)) (ite MW_S1_V5 S1_V5_!2450 V5_0)))))
 (let (($x6051 (or $x1768 (= (ite MW_S2_V3 S2_V3_!2454 (ite MW_S1_V3 S1_V3_!2448 V3_0)) (ite MW_S1_V3 S1_V3_!2448 V3_0)))))
 (let (($x5445 (and (or (not R_S2_V1) (= ?x2913 (+ (- 1) E1_!2452))) $x6051 (or (not R_S2_V2) (= (ite MW_S2_V2 S2_V2_!2455 ?x24) ?x24)) $x5030 $x737)))
 (let (($x5277 (or (not (and (or (not R_S1_V1) (= E1_!2446 ?x4441)) $x5084 $x2450 $x1445 $x1762)) (= S1_V1_!2447 S1_V1_!2474))))
 (let (($x3674 (and $x5277 (or (not (or (not R_S1_V1) $x2983)) (= S1_V1_!2464 S1_V1_!2447)) (or $x3750 (= S1_V1_!2464 S1_V1_!2474)) (or $x2279 (= S2_V5_!2456 S2_V5_!2472)) (or (not $x5445) (= S2_V5_!2461 S2_V5_!2456)) (or $x3420 (= S2_V5_!2461 S2_V5_!2472)) (or $x1614 (= S2_V5_!2482 S2_V5_!2456)) (or $x4125 (= S2_V5_!2482 S2_V5_!2461)) (or $x1938 (= S2_V5_!2482 S2_V5_!2472)) (or (not (or (not R_S1_V1) $x2983)) (= S1_V3_!2465 S1_V3_!2448)) (or $x3750 (= S1_V3_!2465 S1_V3_!2475)) (or $x2012 (= S1_V3_!2475 S1_V3_!2448)) (or (not (or (not R_S1_V1) $x2983)) (= S1_V2_!2466 S1_V2_!2449)) (or $x2012 (= S1_V2_!2476 S1_V2_!2449)) (or $x248 (= S1_V2_!2476 S1_V2_!2466)) (or $x5944 (= E1_!2452 E1_!2446)) (or $x5944 (= E1_!2452 E1_!2463)) $x2983 (or $x2025 (= S2_V4_!2457 S2_V4_!2462)) (or $x2279 (= S2_V4_!2457 S2_V4_!2473)) (or $x3167 (= S2_V4_!2457 S2_V4_!2483)) (or $x3420 (= S2_V4_!2462 S2_V4_!2473)) (or $x228 (= S2_V4_!2462 S2_V4_!2483)) (or $x1938 (= S2_V4_!2483 S2_V4_!2473)) (or (not (or (not R_S1_V1) $x2983)) (= S1_V5_!2467 S1_V5_!2450)) (or $x2012 (= S1_V5_!2477 S1_V5_!2450)) (or $x248 (= S1_V5_!2477 S1_V5_!2467)) (or $x2025 (= S2_V1_!2453 S2_V1_!2458)) (or $x3167 (= S2_V1_!2453 S2_V1_!2479)) (or $x228 (= S2_V1_!2458 S2_V1_!2479)) (or $x1835 (= S2_V1_!2469 S2_V1_!2453)) (or $x314 (= S2_V1_!2469 S2_V1_!2458)) (or $x2666 (= S2_V1_!2469 S2_V1_!2479)) (or (not (or (not R_S1_V1) $x2983)) (= S1_V4_!2468 S1_V4_!2451)) (or $x3750 $x3022) (or $x2012 (= S1_V4_!2478 S1_V4_!2451)) (or $x2025 (= S2_V2_!2455 S2_V2_!2460)) (or $x1835 $x520) (or $x314 (= S2_V2_!2471 S2_V2_!2460)) (or $x2666 $x61) (or $x1614 $x3502) (or $x4125 (= S2_V2_!2481 S2_V2_!2460)) (or $x2025 $x2510) (or $x2279 $x170) (or $x3167 $x4277) (or $x314 $x5826) (or $x4125 $x4051) (or $x1938 $x4037) (not MW_S1_V1) (not MW_S1_V2) (or (not MW_S1_V5) W_S1_V5) (or (not MW_S1_V4) W_S1_V4) (or (not MW_S2_V1) W_S2_V1) (or (not MW_S2_V3) W_S2_V3) (or (not MW_S2_V2) W_S2_V2) (or (not MW_S2_V5) W_S2_V5))))
 (or (not $x3674) (not $x5414) (and (= ?x4061 ?x3562) $x4220 (= ?x3628 ?x338) $x218 $x479))))))))))))))))))))))))))))))))))))))))))))))))))))))))))))))))))))))))))))))))))))))))))))))
 )
 )
 )
 )
 )
 )
 )
 )
 )
 )
 )
 )
 )
 )
 )
 )
 )
 )
 )
 )
 )
 )
 )
 )
 )
 )
 )
 )
 )
 )
 )
 )
 )
 )
 )
 )
 )
 )
 )
 )
 )
 )
 )
 )
 )
 )
 )
 )
 )
 )
 )
 ))
 (let (($x720 (not (or (and W_S2_V2 R_E1_V2) (and W_S2_V5 R_E1_V5) R_E1_V4))))
 (let (($x2836 (= DISJ_W_S2_R_E1 $x720)))
 (let (($x5938 (and W_S2_V5 R_S2_V5)))
 (let (($x498 (and W_S2_V2 R_S2_V2)))
 (let (($x5427 (and W_S2_V3 R_S2_V3)))
 (let (($x5961 (and W_S2_V1 R_S2_V1)))
 (let (($x3110 (= DISJ_W_S2_R_S2 (not (or $x5961 $x5427 $x498 $x5938 R_S2_V4)))))
 (let (($x5870 (and W_S2_V5 R_S1_V5)))
 (let (($x2102 (and W_S2_V2 R_S1_V2)))
 (let (($x2875 (and W_S2_V3 R_S1_V3)))
 (let (($x4414 (and W_S2_V1 R_S1_V1)))
 (let (($x909 (= DISJ_W_S2_R_S1 (not (or $x4414 $x2875 $x2102 $x5870 R_S1_V4)))))
 (let (($x2852 (= DISJ_W_S1_W_S2 (not (or W_S2_V3 (and W_S1_V5 W_S2_V5) W_S1_V4)))))
 (let (($x4838 (not R_E1_V3)))
 (let (($x5614 (not (or R_S2_V3 (and W_S1_V5 R_S2_V5) (and W_S1_V4 R_S2_V4)))))
 (let (($x4054 (= DISJ_W_S1_R_S2 $x5614)))
 (let (($x1493 (not (or R_S1_V3 (and W_S1_V5 R_S1_V5) (and W_S1_V4 R_S1_V4)))))
 (let (($x3930 (= DISJ_W_S1_R_S1 $x1493)))
 (let (($x3651 (not R_S1_V1)))
 (let (($x5597 (and $x3651 DISJ_W_S1_R_S1)))
 (let (($x3274 (and $x2895 DISJ_W_S2_R_S1 DISJ_W_S1_R_S1)))
 (let (($x873 (or $x3274 $x114 $x5597)))
 (let (($x2563 (not W_S1_V2)))
 (let (($x1438 (not W_S1_V1)))
 (let (($x2185 (not R_E1_V1)))
 (let (($x2974 (and DISJ_W_S1_R_E1 $x2185 $x1438 $x2563 $x873 W_S1_V3 W_S2_V4 $x3930 $x4054 $x4838 $x2852 $x909 $x3110 $x2836 $x2465 $x4738 $x2653)))
 (and $x2974 $x3346 $x4857 $x2963 $x4865 $x2318 $x1077 $x2189 $x820 $x1217 $x2337 $x321 $x3847 $x1929 $x3783 $x3703 $x3888)))))))))))))))))))))))))))))))))))))))))))))))))))))
(check-sat)
